# Solution for model nitrogen cycle_srl_ilp
# Objective value = 3.4024580446641162e+00
Z_541_0_0 0
Z_541_0_1 0
Z_541_0_2 1
Z_541_0_3 0
Z_541_0_4 0
Z_745_0_0 0
Z_745_0_1 0
Z_745_0_2 1
Z_745_0_3 0
Z_745_0_4 0
Z_74_1_0 0
Z_74_1_1 0
Z_74_1_2 0
Z_74_1_3 0
Z_74_1_4 1
Z_74_2_0 0
Z_74_2_1 0
Z_74_2_2 0
Z_74_2_3 1
Z_74_2_4 0
Z_74_0_0 0
Z_74_0_1 0
Z_74_0_2 1
Z_74_0_3 0
Z_74_0_4 0
Z_294_0_0 0
Z_294_0_1 0
Z_294_0_2 1
Z_294_0_3 0
Z_294_0_4 0
